(set-option :produce-models true)
(set-logic QF_LRA)
(set-info :notes | Strip-packing problem.|)
(declare-fun x0 () Real)
(declare-fun y0 () Real)
(declare-fun x1 () Real)
(declare-fun y1 () Real)
(declare-fun x2 () Real)
(declare-fun y2 () Real)
(declare-fun x3 () Real)
(declare-fun y3 () Real)
(declare-fun x4 () Real)
(declare-fun y4 () Real)
(declare-fun x5 () Real)
(declare-fun y5 () Real)
(declare-fun x6 () Real)
(declare-fun y6 () Real)
(declare-fun x7 () Real)
(declare-fun y7 () Real)
(declare-fun x8 () Real)
(declare-fun y8 () Real)
(declare-fun x9 () Real)
(declare-fun y9 () Real)
(declare-fun x10 () Real)
(declare-fun y10 () Real)
(declare-fun x11 () Real)
(declare-fun y11 () Real)
(declare-fun x12 () Real)
(declare-fun y12 () Real)
(declare-fun x13 () Real)
(declare-fun y13 () Real)
(declare-fun x14 () Real)
(declare-fun y14 () Real)
(declare-fun z () Real)
(declare-fun c () Real)
(assert (and (= c z) (and (>= x0 0) 
(and (>= y0 0) 
(and (>= x1 0) 
(and (>= y1 0) 
(and (>= x2 0) 
(and (>= y2 0) 
(and (>= x3 0) 
(and (>= y3 0) 
(and (>= x4 0) 
(and (>= y4 0) 
(and (>= x5 0) 
(and (>= y5 0) 
(and (>= x6 0) 
(and (>= y6 0) 
(and (>= x7 0) 
(and (>= y7 0) 
(and (>= x8 0) 
(and (>= y8 0) 
(and (>= x9 0) 
(and (>= y9 0) 
(and (>= x10 0) 
(and (>= y10 0) 
(and (>= x11 0) 
(and (>= y11 0) 
(and (>= x12 0) 
(and (>= y12 0) 
(and (>= x13 0) 
(and (>= y13 0) 
(and (>= x14 0) 
(and (>= y14 0) 
(and (>= z 0) 
(and (>= c 0) 
(and (<= (+ x0 0.3201039238) z) 
(and (<= 0.9894254511 y0) 
(and (<= y0 1.9364916731) 
(and (<= x0 (- 2.4254165975 0.3201039238)) 
(and (>= x0 0) 
(and (<= (+ x1 0.0542563911) z) 
(and (<= 0.9772414257 y1) 
(and (<= y1 1.9364916731) 
(and (<= x1 (- 2.4254165975 0.0542563911)) 
(and (>= x1 0) 
(and (<= (+ x2 0.6948256486) z) 
(and (<= 0.9549710289 y2) 
(and (<= y2 1.9364916731) 
(and (<= x2 (- 2.4254165975 0.6948256486)) 
(and (>= x2 0) 
(and (<= (+ x3 0.0925039119) z) 
(and (<= 0.8988553183 y3) 
(and (<= y3 1.9364916731) 
(and (<= x3 (- 2.4254165975 0.0925039119)) 
(and (>= x3 0) 
(and (<= (+ x4 0.0343191617) z) 
(and (<= 0.7468571045 y4) 
(and (<= y4 1.9364916731) 
(and (<= x4 (- 2.4254165975 0.0343191617)) 
(and (>= x4 0) 
(and (<= (+ x5 0.1716881284) z) 
(and (<= 0.621737931 y5) 
(and (<= y5 1.9364916731) 
(and (<= x5 (- 2.4254165975 0.1716881284)) 
(and (>= x5 0) 
(and (<= (+ x6 0.1934420548) z) 
(and (<= 0.4639472492 y6) 
(and (<= y6 1.9364916731) 
(and (<= x6 (- 2.4254165975 0.1934420548)) 
(and (>= x6 0) 
(and (<= (+ x7 0.2516981208) z) 
(and (<= 0.4365759074 y7) 
(and (<= y7 1.9364916731) 
(and (<= x7 (- 2.4254165975 0.2516981208)) 
(and (>= x7 0) 
(and (<= (+ x8 0.9110904584) z) 
(and (<= 0.4215758749 y8) 
(and (<= y8 1.9364916731) 
(and (<= x8 (- 2.4254165975 0.9110904584)) 
(and (>= x8 0) 
(and (<= (+ x9 0.6610904188) z) 
(and (<= 0.3302668841 y9) 
(and (<= y9 1.9364916731) 
(and (<= x9 (- 2.4254165975 0.6610904188)) 
(and (>= x9 0) 
(and (<= (+ x10 0.153083054) z) 
(and (<= 0.2856268136 y10) 
(and (<= y10 1.9364916731) 
(and (<= x10 (- 2.4254165975 0.153083054)) 
(and (>= x10 0) 
(and (<= (+ x11 0.2387093517) z) 
(and (<= 0.2713767247 y11) 
(and (<= y11 1.9364916731) 
(and (<= x11 (- 2.4254165975 0.2387093517)) 
(and (>= x11 0) 
(and (<= (+ x12 0.3593465459) z) 
(and (<= 0.1536927274 y12) 
(and (<= y12 1.9364916731) 
(and (<= x12 (- 2.4254165975 0.3593465459)) 
(and (>= x12 0) 
(and (<= (+ x13 0.0310145244) z) 
(and (<= 0.1072268819 y13) 
(and (<= y13 1.9364916731) 
(and (<= x13 (- 2.4254165975 0.0310145244)) 
(and (>= x13 0) 
(and (<= (+ x14 0.7758145252) z) 
(and (<= 0.0673597034 y14) 
(and (<= y14 1.9364916731) 
(and (<= x14 (- 2.4254165975 0.7758145252)) 
(and (>= x14 0) 
(and (<= c 2.4254165975) 
(and (or (<= (+ x0 0.3201039238) x1) (or (<= (+ x1 0.0542563911) x0) (or (>= (- y0 0.9894254511) y1) (or (>= (- y1 0.9772414257) y0))))) 
(and (or (<= (+ x0 0.3201039238) x2) (or (<= (+ x2 0.6948256486) x0) (or (>= (- y0 0.9894254511) y2) (or (>= (- y2 0.9549710289) y0))))) 
(and (or (<= (+ x0 0.3201039238) x3) (or (<= (+ x3 0.0925039119) x0) (or (>= (- y0 0.9894254511) y3) (or (>= (- y3 0.8988553183) y0))))) 
(and (or (<= (+ x0 0.3201039238) x4) (or (<= (+ x4 0.0343191617) x0) (or (>= (- y0 0.9894254511) y4) (or (>= (- y4 0.7468571045) y0))))) 
(and (or (<= (+ x0 0.3201039238) x5) (or (<= (+ x5 0.1716881284) x0) (or (>= (- y0 0.9894254511) y5) (or (>= (- y5 0.621737931) y0))))) 
(and (or (<= (+ x0 0.3201039238) x6) (or (<= (+ x6 0.1934420548) x0) (or (>= (- y0 0.9894254511) y6) (or (>= (- y6 0.4639472492) y0))))) 
(and (or (<= (+ x0 0.3201039238) x7) (or (<= (+ x7 0.2516981208) x0) (or (>= (- y0 0.9894254511) y7) (or (>= (- y7 0.4365759074) y0))))) 
(and (or (<= (+ x0 0.3201039238) x8) (or (<= (+ x8 0.9110904584) x0) (or (>= (- y0 0.9894254511) y8) (or (>= (- y8 0.4215758749) y0))))) 
(and (or (<= (+ x0 0.3201039238) x9) (or (<= (+ x9 0.6610904188) x0) (or (>= (- y0 0.9894254511) y9) (or (>= (- y9 0.3302668841) y0))))) 
(and (or (<= (+ x0 0.3201039238) x10) (or (<= (+ x10 0.153083054) x0) (or (>= (- y0 0.9894254511) y10) (or (>= (- y10 0.2856268136) y0))))) 
(and (or (<= (+ x0 0.3201039238) x11) (or (<= (+ x11 0.2387093517) x0) (or (>= (- y0 0.9894254511) y11) (or (>= (- y11 0.2713767247) y0))))) 
(and (or (<= (+ x0 0.3201039238) x12) (or (<= (+ x12 0.3593465459) x0) (or (>= (- y0 0.9894254511) y12) (or (>= (- y12 0.1536927274) y0))))) 
(and (or (<= (+ x0 0.3201039238) x13) (or (<= (+ x13 0.0310145244) x0) (or (>= (- y0 0.9894254511) y13) (or (>= (- y13 0.1072268819) y0))))) 
(and (or (<= (+ x0 0.3201039238) x14) (or (<= (+ x14 0.7758145252) x0) (or (>= (- y0 0.9894254511) y14) (or (>= (- y14 0.0673597034) y0))))) 
(and (or (<= (+ x1 0.0542563911) x2) (or (<= (+ x2 0.6948256486) x1) (or (>= (- y1 0.9772414257) y2) (or (>= (- y2 0.9549710289) y1))))) 
(and (or (<= (+ x1 0.0542563911) x3) (or (<= (+ x3 0.0925039119) x1) (or (>= (- y1 0.9772414257) y3) (or (>= (- y3 0.8988553183) y1))))) 
(and (or (<= (+ x1 0.0542563911) x4) (or (<= (+ x4 0.0343191617) x1) (or (>= (- y1 0.9772414257) y4) (or (>= (- y4 0.7468571045) y1))))) 
(and (or (<= (+ x1 0.0542563911) x5) (or (<= (+ x5 0.1716881284) x1) (or (>= (- y1 0.9772414257) y5) (or (>= (- y5 0.621737931) y1))))) 
(and (or (<= (+ x1 0.0542563911) x6) (or (<= (+ x6 0.1934420548) x1) (or (>= (- y1 0.9772414257) y6) (or (>= (- y6 0.4639472492) y1))))) 
(and (or (<= (+ x1 0.0542563911) x7) (or (<= (+ x7 0.2516981208) x1) (or (>= (- y1 0.9772414257) y7) (or (>= (- y7 0.4365759074) y1))))) 
(and (or (<= (+ x1 0.0542563911) x8) (or (<= (+ x8 0.9110904584) x1) (or (>= (- y1 0.9772414257) y8) (or (>= (- y8 0.4215758749) y1))))) 
(and (or (<= (+ x1 0.0542563911) x9) (or (<= (+ x9 0.6610904188) x1) (or (>= (- y1 0.9772414257) y9) (or (>= (- y9 0.3302668841) y1))))) 
(and (or (<= (+ x1 0.0542563911) x10) (or (<= (+ x10 0.153083054) x1) (or (>= (- y1 0.9772414257) y10) (or (>= (- y10 0.2856268136) y1))))) 
(and (or (<= (+ x1 0.0542563911) x11) (or (<= (+ x11 0.2387093517) x1) (or (>= (- y1 0.9772414257) y11) (or (>= (- y11 0.2713767247) y1))))) 
(and (or (<= (+ x1 0.0542563911) x12) (or (<= (+ x12 0.3593465459) x1) (or (>= (- y1 0.9772414257) y12) (or (>= (- y12 0.1536927274) y1))))) 
(and (or (<= (+ x1 0.0542563911) x13) (or (<= (+ x13 0.0310145244) x1) (or (>= (- y1 0.9772414257) y13) (or (>= (- y13 0.1072268819) y1))))) 
(and (or (<= (+ x1 0.0542563911) x14) (or (<= (+ x14 0.7758145252) x1) (or (>= (- y1 0.9772414257) y14) (or (>= (- y14 0.0673597034) y1))))) 
(and (or (<= (+ x2 0.6948256486) x3) (or (<= (+ x3 0.0925039119) x2) (or (>= (- y2 0.9549710289) y3) (or (>= (- y3 0.8988553183) y2))))) 
(and (or (<= (+ x2 0.6948256486) x4) (or (<= (+ x4 0.0343191617) x2) (or (>= (- y2 0.9549710289) y4) (or (>= (- y4 0.7468571045) y2))))) 
(and (or (<= (+ x2 0.6948256486) x5) (or (<= (+ x5 0.1716881284) x2) (or (>= (- y2 0.9549710289) y5) (or (>= (- y5 0.621737931) y2))))) 
(and (or (<= (+ x2 0.6948256486) x6) (or (<= (+ x6 0.1934420548) x2) (or (>= (- y2 0.9549710289) y6) (or (>= (- y6 0.4639472492) y2))))) 
(and (or (<= (+ x2 0.6948256486) x7) (or (<= (+ x7 0.2516981208) x2) (or (>= (- y2 0.9549710289) y7) (or (>= (- y7 0.4365759074) y2))))) 
(and (or (<= (+ x2 0.6948256486) x8) (or (<= (+ x8 0.9110904584) x2) (or (>= (- y2 0.9549710289) y8) (or (>= (- y8 0.4215758749) y2))))) 
(and (or (<= (+ x2 0.6948256486) x9) (or (<= (+ x9 0.6610904188) x2) (or (>= (- y2 0.9549710289) y9) (or (>= (- y9 0.3302668841) y2))))) 
(and (or (<= (+ x2 0.6948256486) x10) (or (<= (+ x10 0.153083054) x2) (or (>= (- y2 0.9549710289) y10) (or (>= (- y10 0.2856268136) y2))))) 
(and (or (<= (+ x2 0.6948256486) x11) (or (<= (+ x11 0.2387093517) x2) (or (>= (- y2 0.9549710289) y11) (or (>= (- y11 0.2713767247) y2))))) 
(and (or (<= (+ x2 0.6948256486) x12) (or (<= (+ x12 0.3593465459) x2) (or (>= (- y2 0.9549710289) y12) (or (>= (- y12 0.1536927274) y2))))) 
(and (or (<= (+ x2 0.6948256486) x13) (or (<= (+ x13 0.0310145244) x2) (or (>= (- y2 0.9549710289) y13) (or (>= (- y13 0.1072268819) y2))))) 
(and (or (<= (+ x2 0.6948256486) x14) (or (<= (+ x14 0.7758145252) x2) (or (>= (- y2 0.9549710289) y14) (or (>= (- y14 0.0673597034) y2))))) 
(and (or (<= (+ x3 0.0925039119) x4) (or (<= (+ x4 0.0343191617) x3) (or (>= (- y3 0.8988553183) y4) (or (>= (- y4 0.7468571045) y3))))) 
(and (or (<= (+ x3 0.0925039119) x5) (or (<= (+ x5 0.1716881284) x3) (or (>= (- y3 0.8988553183) y5) (or (>= (- y5 0.621737931) y3))))) 
(and (or (<= (+ x3 0.0925039119) x6) (or (<= (+ x6 0.1934420548) x3) (or (>= (- y3 0.8988553183) y6) (or (>= (- y6 0.4639472492) y3))))) 
(and (or (<= (+ x3 0.0925039119) x7) (or (<= (+ x7 0.2516981208) x3) (or (>= (- y3 0.8988553183) y7) (or (>= (- y7 0.4365759074) y3))))) 
(and (or (<= (+ x3 0.0925039119) x8) (or (<= (+ x8 0.9110904584) x3) (or (>= (- y3 0.8988553183) y8) (or (>= (- y8 0.4215758749) y3))))) 
(and (or (<= (+ x3 0.0925039119) x9) (or (<= (+ x9 0.6610904188) x3) (or (>= (- y3 0.8988553183) y9) (or (>= (- y9 0.3302668841) y3))))) 
(and (or (<= (+ x3 0.0925039119) x10) (or (<= (+ x10 0.153083054) x3) (or (>= (- y3 0.8988553183) y10) (or (>= (- y10 0.2856268136) y3))))) 
(and (or (<= (+ x3 0.0925039119) x11) (or (<= (+ x11 0.2387093517) x3) (or (>= (- y3 0.8988553183) y11) (or (>= (- y11 0.2713767247) y3))))) 
(and (or (<= (+ x3 0.0925039119) x12) (or (<= (+ x12 0.3593465459) x3) (or (>= (- y3 0.8988553183) y12) (or (>= (- y12 0.1536927274) y3))))) 
(and (or (<= (+ x3 0.0925039119) x13) (or (<= (+ x13 0.0310145244) x3) (or (>= (- y3 0.8988553183) y13) (or (>= (- y13 0.1072268819) y3))))) 
(and (or (<= (+ x3 0.0925039119) x14) (or (<= (+ x14 0.7758145252) x3) (or (>= (- y3 0.8988553183) y14) (or (>= (- y14 0.0673597034) y3))))) 
(and (or (<= (+ x4 0.0343191617) x5) (or (<= (+ x5 0.1716881284) x4) (or (>= (- y4 0.7468571045) y5) (or (>= (- y5 0.621737931) y4))))) 
(and (or (<= (+ x4 0.0343191617) x6) (or (<= (+ x6 0.1934420548) x4) (or (>= (- y4 0.7468571045) y6) (or (>= (- y6 0.4639472492) y4))))) 
(and (or (<= (+ x4 0.0343191617) x7) (or (<= (+ x7 0.2516981208) x4) (or (>= (- y4 0.7468571045) y7) (or (>= (- y7 0.4365759074) y4))))) 
(and (or (<= (+ x4 0.0343191617) x8) (or (<= (+ x8 0.9110904584) x4) (or (>= (- y4 0.7468571045) y8) (or (>= (- y8 0.4215758749) y4))))) 
(and (or (<= (+ x4 0.0343191617) x9) (or (<= (+ x9 0.6610904188) x4) (or (>= (- y4 0.7468571045) y9) (or (>= (- y9 0.3302668841) y4))))) 
(and (or (<= (+ x4 0.0343191617) x10) (or (<= (+ x10 0.153083054) x4) (or (>= (- y4 0.7468571045) y10) (or (>= (- y10 0.2856268136) y4))))) 
(and (or (<= (+ x4 0.0343191617) x11) (or (<= (+ x11 0.2387093517) x4) (or (>= (- y4 0.7468571045) y11) (or (>= (- y11 0.2713767247) y4))))) 
(and (or (<= (+ x4 0.0343191617) x12) (or (<= (+ x12 0.3593465459) x4) (or (>= (- y4 0.7468571045) y12) (or (>= (- y12 0.1536927274) y4))))) 
(and (or (<= (+ x4 0.0343191617) x13) (or (<= (+ x13 0.0310145244) x4) (or (>= (- y4 0.7468571045) y13) (or (>= (- y13 0.1072268819) y4))))) 
(and (or (<= (+ x4 0.0343191617) x14) (or (<= (+ x14 0.7758145252) x4) (or (>= (- y4 0.7468571045) y14) (or (>= (- y14 0.0673597034) y4))))) 
(and (or (<= (+ x5 0.1716881284) x6) (or (<= (+ x6 0.1934420548) x5) (or (>= (- y5 0.621737931) y6) (or (>= (- y6 0.4639472492) y5))))) 
(and (or (<= (+ x5 0.1716881284) x7) (or (<= (+ x7 0.2516981208) x5) (or (>= (- y5 0.621737931) y7) (or (>= (- y7 0.4365759074) y5))))) 
(and (or (<= (+ x5 0.1716881284) x8) (or (<= (+ x8 0.9110904584) x5) (or (>= (- y5 0.621737931) y8) (or (>= (- y8 0.4215758749) y5))))) 
(and (or (<= (+ x5 0.1716881284) x9) (or (<= (+ x9 0.6610904188) x5) (or (>= (- y5 0.621737931) y9) (or (>= (- y9 0.3302668841) y5))))) 
(and (or (<= (+ x5 0.1716881284) x10) (or (<= (+ x10 0.153083054) x5) (or (>= (- y5 0.621737931) y10) (or (>= (- y10 0.2856268136) y5))))) 
(and (or (<= (+ x5 0.1716881284) x11) (or (<= (+ x11 0.2387093517) x5) (or (>= (- y5 0.621737931) y11) (or (>= (- y11 0.2713767247) y5))))) 
(and (or (<= (+ x5 0.1716881284) x12) (or (<= (+ x12 0.3593465459) x5) (or (>= (- y5 0.621737931) y12) (or (>= (- y12 0.1536927274) y5))))) 
(and (or (<= (+ x5 0.1716881284) x13) (or (<= (+ x13 0.0310145244) x5) (or (>= (- y5 0.621737931) y13) (or (>= (- y13 0.1072268819) y5))))) 
(and (or (<= (+ x5 0.1716881284) x14) (or (<= (+ x14 0.7758145252) x5) (or (>= (- y5 0.621737931) y14) (or (>= (- y14 0.0673597034) y5))))) 
(and (or (<= (+ x6 0.1934420548) x7) (or (<= (+ x7 0.2516981208) x6) (or (>= (- y6 0.4639472492) y7) (or (>= (- y7 0.4365759074) y6))))) 
(and (or (<= (+ x6 0.1934420548) x8) (or (<= (+ x8 0.9110904584) x6) (or (>= (- y6 0.4639472492) y8) (or (>= (- y8 0.4215758749) y6))))) 
(and (or (<= (+ x6 0.1934420548) x9) (or (<= (+ x9 0.6610904188) x6) (or (>= (- y6 0.4639472492) y9) (or (>= (- y9 0.3302668841) y6))))) 
(and (or (<= (+ x6 0.1934420548) x10) (or (<= (+ x10 0.153083054) x6) (or (>= (- y6 0.4639472492) y10) (or (>= (- y10 0.2856268136) y6))))) 
(and (or (<= (+ x6 0.1934420548) x11) (or (<= (+ x11 0.2387093517) x6) (or (>= (- y6 0.4639472492) y11) (or (>= (- y11 0.2713767247) y6))))) 
(and (or (<= (+ x6 0.1934420548) x12) (or (<= (+ x12 0.3593465459) x6) (or (>= (- y6 0.4639472492) y12) (or (>= (- y12 0.1536927274) y6))))) 
(and (or (<= (+ x6 0.1934420548) x13) (or (<= (+ x13 0.0310145244) x6) (or (>= (- y6 0.4639472492) y13) (or (>= (- y13 0.1072268819) y6))))) 
(and (or (<= (+ x6 0.1934420548) x14) (or (<= (+ x14 0.7758145252) x6) (or (>= (- y6 0.4639472492) y14) (or (>= (- y14 0.0673597034) y6))))) 
(and (or (<= (+ x7 0.2516981208) x8) (or (<= (+ x8 0.9110904584) x7) (or (>= (- y7 0.4365759074) y8) (or (>= (- y8 0.4215758749) y7))))) 
(and (or (<= (+ x7 0.2516981208) x9) (or (<= (+ x9 0.6610904188) x7) (or (>= (- y7 0.4365759074) y9) (or (>= (- y9 0.3302668841) y7))))) 
(and (or (<= (+ x7 0.2516981208) x10) (or (<= (+ x10 0.153083054) x7) (or (>= (- y7 0.4365759074) y10) (or (>= (- y10 0.2856268136) y7))))) 
(and (or (<= (+ x7 0.2516981208) x11) (or (<= (+ x11 0.2387093517) x7) (or (>= (- y7 0.4365759074) y11) (or (>= (- y11 0.2713767247) y7))))) 
(and (or (<= (+ x7 0.2516981208) x12) (or (<= (+ x12 0.3593465459) x7) (or (>= (- y7 0.4365759074) y12) (or (>= (- y12 0.1536927274) y7))))) 
(and (or (<= (+ x7 0.2516981208) x13) (or (<= (+ x13 0.0310145244) x7) (or (>= (- y7 0.4365759074) y13) (or (>= (- y13 0.1072268819) y7))))) 
(and (or (<= (+ x7 0.2516981208) x14) (or (<= (+ x14 0.7758145252) x7) (or (>= (- y7 0.4365759074) y14) (or (>= (- y14 0.0673597034) y7))))) 
(and (or (<= (+ x8 0.9110904584) x9) (or (<= (+ x9 0.6610904188) x8) (or (>= (- y8 0.4215758749) y9) (or (>= (- y9 0.3302668841) y8))))) 
(and (or (<= (+ x8 0.9110904584) x10) (or (<= (+ x10 0.153083054) x8) (or (>= (- y8 0.4215758749) y10) (or (>= (- y10 0.2856268136) y8))))) 
(and (or (<= (+ x8 0.9110904584) x11) (or (<= (+ x11 0.2387093517) x8) (or (>= (- y8 0.4215758749) y11) (or (>= (- y11 0.2713767247) y8))))) 
(and (or (<= (+ x8 0.9110904584) x12) (or (<= (+ x12 0.3593465459) x8) (or (>= (- y8 0.4215758749) y12) (or (>= (- y12 0.1536927274) y8))))) 
(and (or (<= (+ x8 0.9110904584) x13) (or (<= (+ x13 0.0310145244) x8) (or (>= (- y8 0.4215758749) y13) (or (>= (- y13 0.1072268819) y8))))) 
(and (or (<= (+ x8 0.9110904584) x14) (or (<= (+ x14 0.7758145252) x8) (or (>= (- y8 0.4215758749) y14) (or (>= (- y14 0.0673597034) y8))))) 
(and (or (<= (+ x9 0.6610904188) x10) (or (<= (+ x10 0.153083054) x9) (or (>= (- y9 0.3302668841) y10) (or (>= (- y10 0.2856268136) y9))))) 
(and (or (<= (+ x9 0.6610904188) x11) (or (<= (+ x11 0.2387093517) x9) (or (>= (- y9 0.3302668841) y11) (or (>= (- y11 0.2713767247) y9))))) 
(and (or (<= (+ x9 0.6610904188) x12) (or (<= (+ x12 0.3593465459) x9) (or (>= (- y9 0.3302668841) y12) (or (>= (- y12 0.1536927274) y9))))) 
(and (or (<= (+ x9 0.6610904188) x13) (or (<= (+ x13 0.0310145244) x9) (or (>= (- y9 0.3302668841) y13) (or (>= (- y13 0.1072268819) y9))))) 
(and (or (<= (+ x9 0.6610904188) x14) (or (<= (+ x14 0.7758145252) x9) (or (>= (- y9 0.3302668841) y14) (or (>= (- y14 0.0673597034) y9))))) 
(and (or (<= (+ x10 0.153083054) x11) (or (<= (+ x11 0.2387093517) x10) (or (>= (- y10 0.2856268136) y11) (or (>= (- y11 0.2713767247) y10))))) 
(and (or (<= (+ x10 0.153083054) x12) (or (<= (+ x12 0.3593465459) x10) (or (>= (- y10 0.2856268136) y12) (or (>= (- y12 0.1536927274) y10))))) 
(and (or (<= (+ x10 0.153083054) x13) (or (<= (+ x13 0.0310145244) x10) (or (>= (- y10 0.2856268136) y13) (or (>= (- y13 0.1072268819) y10))))) 
(and (or (<= (+ x10 0.153083054) x14) (or (<= (+ x14 0.7758145252) x10) (or (>= (- y10 0.2856268136) y14) (or (>= (- y14 0.0673597034) y10))))) 
(and (or (<= (+ x11 0.2387093517) x12) (or (<= (+ x12 0.3593465459) x11) (or (>= (- y11 0.2713767247) y12) (or (>= (- y12 0.1536927274) y11))))) 
(and (or (<= (+ x11 0.2387093517) x13) (or (<= (+ x13 0.0310145244) x11) (or (>= (- y11 0.2713767247) y13) (or (>= (- y13 0.1072268819) y11))))) 
(and (or (<= (+ x11 0.2387093517) x14) (or (<= (+ x14 0.7758145252) x11) (or (>= (- y11 0.2713767247) y14) (or (>= (- y14 0.0673597034) y11))))) 
(and (or (<= (+ x12 0.3593465459) x13) (or (<= (+ x13 0.0310145244) x12) (or (>= (- y12 0.1536927274) y13) (or (>= (- y13 0.1072268819) y12))))) 
(and (or (<= (+ x12 0.3593465459) x14) (or (<= (+ x14 0.7758145252) x12) (or (>= (- y12 0.1536927274) y14) (or (>= (- y14 0.0673597034) y12))))) 
(and (or (<= (+ x13 0.0310145244) x14) (or (<= (+ x14 0.7758145252) x13) (or (>= (- y13 0.1072268819) y14) (or (>= (- y14 0.0673597034) y13))))) )))))))))))))))))))))))))))))))))))))))))))))))))))))))))))))))))))))))))))))))))))))))))))))))))))))))))))))))))))))))))))))))))))))))))))))))))))))))))))))))))))))))))))))))))))))))))))))))))))))))))))))))))))))))
(minimize c)
(check-sat)
(get-objectives)
(exit)
